NAME: I14453-n25-k3
COMMENT : (Fake et al, No of trucks: 3, Optimal value: )
TYPE : CVRP
DIMENSION : 25
EDGE_WEIGHT_TYPE : EUC_2D
CAPACITY : 46
NODE_COORD_SECTION
1 159 463
2 667 9
3 816 755
4 17 805
5 100 66
6 911 690
7 862 489
8 60 51
9 614 823
10 271 430
11 651 354
12 681 973
13 213 397
14 736 982
15 891 556
16 286 302
17 984 703
18 672 164
19 423 349
20 708 548
21 475 389
22 98 673
23 397 641
24 194 554
25 436 127
DEMAND_SECTION
1 0
2 6
3 2
4 5
5 8
6 7
7 2
8 7
9 7
10 7
11 4
12 2
13 8
14 1
15 5
16 3
17 1
18 7
19 5
20 6
21 4
22 5
23 5
24 5
25 1
DEPOT_SECTION
 1
 -1
 EOF 